presolving:
(round 1, fast)       5342 del vars, 5481 del conss, 0 add conss, 141 chg bounds, 2600 chg sides, 5200 chg coeffs, 0 upgd conss, 0 impls, 0 clqs
(round 2, fast)       5482 del vars, 10681 del conss, 0 add conss, 141 chg bounds, 2600 chg sides, 5200 chg coeffs, 0 upgd conss, 0 impls, 0 clqs
   Deactivated symmetry handling methods, since SCIP was built without symmetry detector (SYM=none).
presolving (3 rounds: 3 fast, 1 medium, 1 exhaustive):
 5622 deleted vars, 10681 deleted constraints, 0 added constraints, 141 tightened bounds, 0 added holes, 2600 changed sides, 5200 changed coefficients
 0 implications, 0 cliques
transformed 1/1 original solutions to the transformed problem space
Presolving Time: 0.02

SCIP Status        : problem is solved [optimal solution found]
Solving Time (sec) : 0.02
Solving Nodes      : 0
Primal Bound       : -2.60000000000000e+03 (1 solutions)
Dual Bound         : -2.60000000000000e+03
Gap                : 0.00 %
Root classes: ['0']
Status: OPTIMAL
